p cnf 971 2133
a 17 18 19 20 21 22 23 24 25 26 27 28 29 30 31 32 33 34 35 36 37 38 39 40 41 42 43 44 45 46 48 49 50 51 52 53 54 55 56 57 58 59 61 62 63 64 65 66 67 68 69 70 71 72 74 75 76 77 78 79 80 81 82 83 84 85 86 87 88 89 90 91 92 93 94 95 96 97 98 99 100 101 102 103 104 105 106 107 108 109 110 111 112 113 114 115 116 117 118 0
e 1 2 3 4 5 6 7 8 9 10 11 12 13 14 15 16 119 120 121 122 123 124 125 126 127 128 129 130 131 132 133 134 135 136 137 138 139 140 141 142 143 144 145 146 147 148 149 150 151 152 153 154 155 156 157 158 159 160 161 162 163 164 165 166 167 168 169 170 171 172 173 174 175 176 177 178 179 180 181 182 183 184 185 186 187 188 189 190 191 192 193 194 195 196 197 198 199 200 201 202 203 204 205 206 207 208 209 210 211 212 213 214 215 216 217 218 219 220 221 222 223 224 225 226 227 228 229 230 231 232 233 234 235 236 237 238 239 240 241 242 243 244 245 246 247 248 249 250 251 252 253 254 255 256 257 258 259 260 261 262 263 264 265 266 267 268 269 270 271 272 273 274 275 276 277 278 279 280 281 282 283 284 285 286 287 288 289 290 291 292 293 294 295 296 297 298 299 300 301 302 303 304 305 306 307 308 309 310 311 312 313 314 315 316 317 318 319 320 321 322 323 324 325 326 327 328 329 330 331 332 333 334 335 336 337 338 339 340 341 342 343 344 345 346 347 348 349 350 351 352 353 354 355 356 357 358 359 360 361 362 363 364 365 366 367 368 369 370 371 372 373 374 375 376 377 378 379 380 381 382 383 384 385 386 387 388 389 390 391 392 393 394 395 396 397 398 399 400 401 402 403 404 405 406 407 408 409 410 411 412 413 414 415 416 417 418 419 420 421 422 423 424 425 426 427 428 429 430 431 432 433 434 435 436 437 438 439 440 441 442 443 444 445 446 447 448 449 450 451 452 453 454 455 456 457 458 459 460 461 462 463 464 465 466 467 468 469 470 471 472 473 474 475 476 477 478 479 480 481 482 483 484 485 486 487 488 489 490 491 492 493 494 495 496 497 498 499 500 501 502 503 504 505 506 507 508 509 510 511 512 513 514 515 516 517 518 519 520 521 522 523 524 525 526 527 528 529 530 531 532 533 534 535 536 537 538 539 540 541 542 543 544 545 546 547 548 549 550 551 552 553 554 555 556 557 558 559 560 561 562 563 564 565 566 567 568 569 570 571 572 573 574 575 576 577 578 579 580 581 582 583 584 585 586 587 588 589 590 591 592 593 594 595 596 597 598 599 600 601 602 603 604 605 606 607 608 609 610 611 612 613 614 615 616 617 618 619 620 621 622 623 624 625 626 627 628 629 630 631 632 633 634 635 636 637 638 639 640 641 642 643 644 645 646 647 648 649 650 651 652 653 654 655 656 657 658 659 660 661 662 663 664 665 666 667 668 669 670 671 672 673 674 675 676 677 678 679 680 681 682 683 684 685 686 687 688 689 690 691 692 693 694 695 696 697 698 699 700 701 702 703 704 705 706 707 708 709 710 711 712 713 714 715 716 717 718 719 720 721 722 723 724 725 726 727 728 729 730 731 732 733 734 735 736 737 738 739 740 741 742 743 744 745 746 747 748 749 750 751 752 753 754 755 756 757 758 759 760 761 762 763 764 765 766 767 768 769 770 771 772 773 774 775 776 777 778 779 780 781 782 783 784 785 786 787 788 789 790 791 792 793 794 795 796 797 798 799 800 801 802 803 804 805 806 807 808 809 810 811 812 813 814 815 816 817 818 819 820 821 822 823 824 825 826 827 828 829 830 831 832 833 834 835 836 837 838 839 840 841 842 843 844 845 846 847 848 849 850 851 852 853 854 855 856 857 858 859 860 861 862 863 864 865 866 867 868 869 870 871 872 873 874 875 876 877 878 879 880 881 882 883 884 885 886 887 888 889 890 891 892 893 894 895 896 897 898 899 900 901 902 903 904 905 906 907 908 909 910 911 912 913 914 915 916 917 918 919 920 921 922 923 924 925 926 927 928 929 930 931 932 933 934 935 936 937 938 939 940 941 942 943 944 945 946 947 948 949 950 951 952 953 954 955 956 957 958 959 960 961 962 963 964 965 966 967 968 969 970 971 0
-971 0
971 -545 0
971 -970 0
13 9 7 5 4 6 16 8 15 14 12 11 10 3 2 1 -969 -968 -967 -966 -965 -961 -956 -952 -927 -922 -897 -893 -878 -874 -859 -770 970 0
969 -951 0
969 -769 0
968 -921 0
968 -873 0
967 -759 0
967 -858 0
966 -848 0
966 -892 0
965 -964 0
965 -873 0
965 -951 0
-935 -934 -933 -963 -962 964 0
963 -931 0
963 -601 0
963 -602 0
963 -603 0
963 -604 0
963 -605 0
962 -957 0
962 -708 0
962 -602 0
962 -603 0
962 -604 0
962 -605 0
961 -960 0
961 -858 0
961 -951 0
-930 -929 -928 -959 -958 960 0
959 -833 0
959 -936 0
959 -602 0
959 -603 0
959 -604 0
959 -605 0
958 -957 0
958 -792 0
958 -602 0
958 -603 0
958 -604 0
958 -605 0
-940 -939 -938 957 0
956 -955 0
956 -858 0
956 -921 0
-905 -954 -904 -903 -953 955 0
954 -924 0
954 -812 0
954 -602 0
954 -603 0
954 -604 0
954 -605 0
953 -901 0
953 -792 0
953 -602 0
953 -603 0
953 -604 0
953 -605 0
952 -941 0
952 -892 0
952 -951 0
-950 -947 -944 951 0
950 -948 0
950 -949 0
950 -38 0
950 -37 0
-1 -40 949 0
-39 1 948 0
947 -945 0
947 -946 0
947 -34 0
947 -33 0
-35 1 946 0
-1 -36 945 0
944 -942 0
944 -943 0
944 -30 0
944 -29 0
-1 -32 943 0
-31 1 942 0
-940 -939 -938 -937 -932 941 0
940 -650 0
940 -602 0
940 -603 0
940 -604 0
940 -605 0
939 -573 0
939 -602 0
939 -603 0
939 -604 0
939 -725 0
939 -605 0
938 -667 0
938 -812 0
938 -602 0
938 -603 0
938 -604 0
938 -605 0
937 -573 0
937 -936 0
937 -602 0
937 -603 0
937 -604 0
937 -605 0
-935 -934 -933 936 0
935 -602 0
935 -603 0
935 -604 0
935 -725 0
935 -605 0
934 -812 0
934 -601 0
934 -602 0
934 -603 0
934 -604 0
934 -605 0
933 -650 0
933 -708 0
933 -602 0
933 -603 0
933 -604 0
933 -605 0
932 -667 0
932 -931 0
932 -602 0
932 -603 0
932 -604 0
932 -605 0
-930 -929 -928 931 0
930 -812 0
930 -602 0
930 -603 0
930 -604 0
930 -605 0
929 -833 0
929 -602 0
929 -603 0
929 -604 0
929 -725 0
929 -605 0
928 -792 0
928 -650 0
928 -602 0
928 -603 0
928 -604 0
928 -605 0
927 -926 0
927 -892 0
927 -921 0
-900 -899 -898 -925 -923 926 0
925 -924 0
925 -650 0
925 -602 0
925 -603 0
925 -604 0
925 -605 0
-910 -909 -908 924 0
923 -906 0
923 -667 0
923 -602 0
923 -603 0
923 -604 0
923 -605 0
922 -911 0
922 -921 0
922 -769 0
-920 -917 -914 921 0
920 -918 0
920 -919 0
920 -88 0
920 -38 0
-6 -40 919 0
-39 6 918 0
917 -915 0
917 -87 0
917 -916 0
917 -34 0
-35 6 916 0
-6 -36 915 0
914 -912 0
914 -913 0
914 -86 0
914 -30 0
-6 -32 913 0
-31 6 912 0
-910 -909 -908 -907 -902 911 0
910 -744 0
910 -602 0
910 -603 0
910 -604 0
910 -605 0
909 -628 0
909 -833 0
909 -602 0
909 -603 0
909 -604 0
909 -605 0
908 -691 0
908 -573 0
908 -602 0
908 -603 0
908 -604 0
908 -605 0
907 -906 0
907 -628 0
907 -602 0
907 -603 0
907 -604 0
907 -605 0
-905 -904 -903 906 0
905 -833 0
905 -602 0
905 -603 0
905 -604 0
905 -605 0
904 -744 0
904 -812 0
904 -602 0
904 -603 0
904 -604 0
904 -605 0
903 -573 0
903 -792 0
903 -602 0
903 -603 0
903 -604 0
903 -605 0
902 -901 0
902 -691 0
902 -602 0
902 -603 0
902 -604 0
902 -605 0
-900 -899 -898 901 0
900 -573 0
900 -602 0
900 -603 0
900 -604 0
900 -605 0
899 -744 0
899 -650 0
899 -602 0
899 -603 0
899 -604 0
899 -605 0
898 -667 0
898 -833 0
898 -602 0
898 -603 0
898 -604 0
898 -605 0
897 -896 0
897 -759 0
897 -873 0
-727 -726 -709 -895 -894 896 0
895 -669 0
895 -708 0
895 -602 0
895 -603 0
895 -604 0
895 -605 0
894 -879 0
894 -602 0
894 -603 0
894 -604 0
894 -725 0
894 -605 0
893 -882 0
893 -892 0
893 -759 0
-891 -888 -885 892 0
891 -889 0
891 -890 0
891 -118 0
891 -115 0
-16 -28 890 0
-27 16 889 0
888 -886 0
888 -887 0
888 -117 0
888 -114 0
-16 -24 887 0
-23 16 886 0
885 -883 0
885 -116 0
885 -113 0
885 -884 0
-16 -20 884 0
-19 16 883 0
-668 -651 -606 -881 -880 882 0
881 -728 0
881 -573 0
881 -602 0
881 -603 0
881 -604 0
881 -605 0
880 -879 0
880 -650 0
880 -602 0
880 -603 0
880 -604 0
880 -605 0
-748 -747 -746 879 0
878 -877 0
878 -848 0
878 -769 0
-795 -876 -875 -794 -793 877 0
876 -817 0
876 -744 0
876 -602 0
876 -603 0
876 -604 0
876 -605 0
875 -861 0
875 -628 0
875 -602 0
875 -603 0
875 -604 0
875 -605 0
874 -863 0
874 -848 0
874 -873 0
-872 -869 -866 873 0
872 -870 0
872 -871 0
872 -115 0
872 -26 0
-6 -28 871 0
-27 6 870 0
869 -114 0
869 -867 0
869 -868 0
869 -22 0
-6 -24 868 0
-23 6 867 0
866 -864 0
866 -865 0
866 -113 0
866 -18 0
-6 -20 865 0
-19 6 864 0
-816 -815 -814 -862 -860 863 0
862 -861 0
862 -601 0
862 -602 0
862 -603 0
862 -604 0
862 -605 0
-837 -836 -835 861 0
860 -796 0
860 -602 0
860 -603 0
860 -604 0
860 -725 0
860 -605 0
859 -838 0
859 -848 0
859 -858 0
-857 -854 -851 858 0
857 -855 0
857 -115 0
857 -856 0
857 -26 0
-27 11 856 0
-11 -28 855 0
854 -852 0
854 -853 0
854 -114 0
854 -22 0
-11 -24 853 0
-23 11 852 0
851 -849 0
851 -850 0
851 -113 0
851 -18 0
-11 -20 850 0
-19 11 849 0
-847 -844 -841 848 0
847 -845 0
847 -846 0
847 -112 0
847 -88 0
-16 -40 846 0
-39 16 845 0
844 -842 0
844 -843 0
844 -111 0
844 -87 0
-16 -36 843 0
-35 16 842 0
841 -110 0
841 -839 0
841 -840 0
841 -86 0
-16 -32 840 0
-31 16 839 0
-837 -836 -835 -834 -813 838 0
837 -792 0
837 -602 0
837 -603 0
837 -604 0
837 -605 0
836 -691 0
836 -812 0
836 -602 0
836 -603 0
836 -604 0
836 -605 0
835 -833 0
835 -708 0
835 -602 0
835 -603 0
835 -604 0
835 -605 0
834 -817 0
834 -833 0
834 -602 0
834 -603 0
834 -604 0
834 -605 0
-832 -827 -822 833 0
832 -828 0
832 -829 0
832 -830 0
832 -831 0
832 -787 0
832 -788 0
832 -570 0
832 -571 0
832 -103 0
832 -100 0
832 -96 0
832 -95 0
832 -78 0
832 -77 0
832 -76 0
-7 -84 831 0
-10 -46 830 0
7 -81 829 0
10 -43 828 0
827 -823 0
827 -824 0
827 -780 0
827 -781 0
827 -825 0
827 -560 0
827 -561 0
827 -102 0
827 -99 0
827 -93 0
827 -92 0
827 -826 0
827 -65 0
827 -64 0
827 -63 0
-7 -71 826 0
-10 -44 825 0
7 -68 824 0
10 -42 823 0
822 -818 0
822 -819 0
822 -820 0
822 -821 0
822 -552 0
822 -101 0
822 -98 0
822 -90 0
822 -89 0
822 -775 0
822 -776 0
822 -553 0
822 -52 0
822 -51 0
822 -50 0
-10 -45 821 0
-7 -58 820 0
7 -55 819 0
10 -41 818 0
-816 -815 -814 817 0
816 -708 0
816 -602 0
816 -603 0
816 -604 0
816 -605 0
815 -691 0
815 -602 0
815 -603 0
815 -604 0
815 -725 0
815 -605 0
814 -792 0
814 -601 0
814 -602 0
814 -603 0
814 -604 0
814 -605 0
813 -796 0
813 -812 0
813 -602 0
813 -603 0
813 -604 0
813 -605 0
-811 -806 -801 812 0
811 -787 0
811 -788 0
811 -807 0
811 -808 0
811 -809 0
811 -810 0
811 -647 0
811 -648 0
811 -100 0
811 -95 0
811 -79 0
811 -78 0
811 -77 0
811 -76 0
811 -75 0
-3 -84 810 0
-9 -46 809 0
3 -81 808 0
9 -43 807 0
806 -780 0
806 -802 0
806 -803 0
806 -804 0
806 -805 0
806 -638 0
806 -639 0
806 -781 0
806 -99 0
806 -92 0
806 -66 0
806 -65 0
806 -64 0
806 -63 0
806 -62 0
-3 -71 805 0
-9 -44 804 0
3 -68 803 0
9 -42 802 0
801 -797 0
801 -798 0
801 -799 0
801 -632 0
801 -633 0
801 -800 0
801 -98 0
801 -89 0
801 -775 0
801 -776 0
801 -53 0
801 -52 0
801 -51 0
801 -50 0
801 -49 0
-9 -45 800 0
-3 -58 799 0
3 -55 798 0
9 -41 797 0
-795 -794 -793 796 0
795 -691 0
795 -602 0
795 -603 0
795 -604 0
795 -605 0
794 -744 0
794 -708 0
794 -602 0
794 -603 0
794 -604 0
794 -605 0
793 -628 0
793 -792 0
793 -602 0
793 -603 0
793 -604 0
793 -605 0
-791 -784 -777 792 0
791 -785 0
791 -786 0
791 -687 0
791 -787 0
791 -788 0
791 -688 0
791 -789 0
791 -106 0
791 -100 0
791 -97 0
791 -96 0
791 -95 0
791 -790 0
791 -79 0
791 -76 0
-12 -46 790 0
12 -43 789 0
-11 -83 788 0
11 -80 787 0
-15 -84 786 0
15 -81 785 0
784 -778 0
784 -779 0
784 -680 0
784 -780 0
784 -781 0
784 -782 0
784 -783 0
784 -105 0
784 -99 0
784 -94 0
784 -93 0
784 -92 0
784 -682 0
784 -66 0
784 -63 0
-12 -44 783 0
12 -42 782 0
-11 -70 781 0
11 -67 780 0
-15 -71 779 0
15 -68 778 0
777 -771 0
777 -772 0
777 -672 0
777 -773 0
777 -774 0
777 -674 0
777 -104 0
777 -98 0
777 -91 0
777 -90 0
777 -89 0
777 -775 0
777 -776 0
777 -53 0
777 -50 0
-11 -57 776 0
11 -54 775 0
-12 -45 774 0
12 -41 773 0
-15 -58 772 0
15 -55 771 0
770 -749 0
770 -759 0
770 -769 0
-768 -765 -762 769 0
768 -766 0
768 -767 0
768 -26 0
768 -25 0
-1 -28 767 0
-27 1 766 0
765 -763 0
765 -764 0
765 -22 0
765 -21 0
-23 1 764 0
-1 -24 763 0
762 -760 0
762 -761 0
762 -18 0
762 -17 0
-1 -20 761 0
-19 1 760 0
-758 -755 -752 759 0
758 -756 0
758 -757 0
758 -88 0
758 -38 0
-11 -40 757 0
-39 11 756 0
755 -753 0
755 -754 0
755 -87 0
755 -34 0
-11 -36 754 0
-35 11 753 0
752 -750 0
752 -751 0
752 -86 0
752 -30 0
-11 -32 751 0
-31 11 750 0
-748 -747 -746 -745 -692 749 0
748 -628 0
748 -602 0
748 -603 0
748 -604 0
748 -605 0
747 -744 0
747 -601 0
747 -602 0
747 -603 0
747 -604 0
747 -605 0
746 -691 0
746 -667 0
746 -602 0
746 -603 0
746 -604 0
746 -605 0
745 -728 0
745 -744 0
745 -602 0
745 -603 0
745 -604 0
745 -605 0
-743 -738 -733 744 0
743 -625 0
743 -626 0
743 -739 0
743 -740 0
743 -741 0
743 -742 0
743 -570 0
743 -571 0
743 -97 0
743 -96 0
743 -95 0
743 -79 0
743 -77 0
743 -76 0
743 -74 0
-5 -84 742 0
-2 -46 741 0
5 -81 740 0
2 -43 739 0
738 -616 0
738 -617 0
738 -734 0
738 -735 0
738 -736 0
738 -560 0
738 -561 0
738 -94 0
738 -93 0
738 -92 0
738 -737 0
738 -66 0
738 -64 0
738 -63 0
738 -61 0
-5 -71 737 0
2 -42 736 0
-2 -44 735 0
5 -68 734 0
733 -610 0
733 -729 0
733 -730 0
733 -731 0
733 -732 0
733 -552 0
733 -91 0
733 -90 0
733 -89 0
733 -612 0
733 -553 0
733 -53 0
733 -51 0
733 -50 0
733 -48 0
-5 -58 732 0
-2 -45 731 0
5 -55 730 0
2 -41 729 0
-727 -726 -709 728 0
727 -601 0
727 -602 0
727 -603 0
727 -604 0
727 -605 0
726 -628 0
726 -602 0
726 -603 0
726 -604 0
726 -725 0
726 -605 0
-724 -719 -714 725 0
724 -647 0
724 -648 0
724 -596 0
724 -720 0
724 -721 0
724 -722 0
724 -598 0
724 -103 0
724 -100 0
724 -95 0
724 -723 0
724 -78 0
724 -77 0
724 -76 0
724 -75 0
-5 -46 723 0
5 -43 722 0
-2 -84 721 0
2 -81 720 0
719 -638 0
719 -639 0
719 -587 0
719 -715 0
719 -716 0
719 -717 0
719 -718 0
719 -589 0
719 -102 0
719 -99 0
719 -92 0
719 -65 0
719 -64 0
719 -63 0
719 -62 0
-5 -44 718 0
-2 -71 717 0
2 -68 716 0
5 -42 715 0
714 -710 0
714 -711 0
714 -712 0
714 -632 0
714 -633 0
714 -579 0
714 -713 0
714 -101 0
714 -98 0
714 -89 0
714 -581 0
714 -52 0
714 -51 0
714 -50 0
714 -49 0
-5 -45 713 0
-2 -58 712 0
2 -55 711 0
5 -41 710 0
709 -667 0
709 -708 0
709 -602 0
709 -603 0
709 -604 0
709 -605 0
-707 -702 -697 708 0
707 -687 0
707 -703 0
707 -704 0
707 -705 0
707 -596 0
707 -706 0
707 -598 0
707 -688 0
707 -106 0
707 -100 0
707 -96 0
707 -95 0
707 -79 0
707 -78 0
707 -76 0
8 -43 706 0
-14 -84 705 0
-8 -46 704 0
14 -81 703 0
702 -680 0
702 -698 0
702 -699 0
702 -700 0
702 -587 0
702 -701 0
702 -589 0
702 -105 0
702 -99 0
702 -93 0
702 -92 0
702 -682 0
702 -66 0
702 -65 0
702 -63 0
-8 -44 701 0
-14 -71 700 0
14 -68 699 0
8 -42 698 0
697 -693 0
697 -694 0
697 -695 0
697 -672 0
697 -696 0
697 -579 0
697 -674 0
697 -104 0
697 -98 0
697 -90 0
697 -89 0
697 -581 0
697 -53 0
697 -52 0
697 -50 0
-14 -58 696 0
-8 -45 695 0
14 -55 694 0
8 -41 693 0
692 -669 0
692 -691 0
692 -602 0
692 -603 0
692 -604 0
692 -605 0
-690 -683 -676 691 0
690 -684 0
690 -685 0
690 -686 0
690 -625 0
690 -626 0
690 -687 0
690 -688 0
690 -689 0
690 -106 0
690 -96 0
690 -95 0
690 -79 0
690 -78 0
690 -76 0
690 -74 0
-4 -46 689 0
-16 -85 688 0
16 -82 687 0
-13 -84 686 0
13 -81 685 0
4 -43 684 0
683 -677 0
683 -678 0
683 -679 0
683 -616 0
683 -617 0
683 -680 0
683 -681 0
683 -105 0
683 -93 0
683 -92 0
683 -682 0
683 -66 0
683 -65 0
683 -63 0
683 -61 0
-16 -72 682 0
4 -42 681 0
16 -69 680 0
-13 -71 679 0
-4 -44 678 0
13 -68 677 0
676 -670 0
676 -671 0
676 -610 0
676 -672 0
676 -673 0
676 -674 0
676 -675 0
676 -104 0
676 -90 0
676 -89 0
676 -612 0
676 -53 0
676 -52 0
676 -50 0
676 -48 0
-4 -45 675 0
-16 -59 674 0
-13 -58 673 0
16 -56 672 0
13 -55 671 0
4 -41 670 0
-668 -651 -606 669 0
668 -667 0
668 -602 0
668 -603 0
668 -604 0
668 -605 0
-666 -661 -656 667 0
666 -662 0
666 -663 0
666 -664 0
666 -665 0
666 -566 0
666 -567 0
666 -592 0
666 -593 0
666 -109 0
666 -103 0
666 -100 0
666 -96 0
666 -95 0
666 -78 0
666 -77 0
-12 -84 665 0
-15 -46 664 0
12 -81 663 0
15 -43 662 0
661 -657 0
661 -658 0
661 -659 0
661 -556 0
661 -583 0
661 -584 0
661 -108 0
661 -102 0
661 -99 0
661 -93 0
661 -92 0
661 -562 0
661 -660 0
661 -65 0
661 -64 0
-12 -71 660 0
-15 -44 659 0
12 -68 658 0
15 -42 657 0
656 -652 0
656 -653 0
656 -654 0
656 -548 0
656 -549 0
656 -577 0
656 -655 0
656 -580 0
656 -107 0
656 -101 0
656 -98 0
656 -90 0
656 -89 0
656 -52 0
656 -51 0
-12 -58 655 0
-15 -45 654 0
12 -55 653 0
15 -41 652 0
651 -628 0
651 -650 0
651 -602 0
651 -603 0
651 -604 0
651 -605 0
-649 -642 -635 650 0
649 -566 0
649 -567 0
649 -643 0
649 -644 0
649 -645 0
649 -646 0
649 -647 0
649 -648 0
649 -109 0
649 -100 0
649 -95 0
649 -79 0
649 -78 0
649 -77 0
649 -75 0
-1 -85 648 0
1 -82 647 0
-4 -84 646 0
-13 -46 645 0
4 -81 644 0
13 -43 643 0
642 -556 0
642 -636 0
642 -637 0
642 -638 0
642 -639 0
642 -640 0
642 -108 0
642 -99 0
642 -92 0
642 -641 0
642 -562 0
642 -66 0
642 -65 0
642 -64 0
642 -62 0
-4 -71 641 0
-13 -44 640 0
-1 -72 639 0
1 -69 638 0
4 -68 637 0
13 -42 636 0
635 -548 0
635 -549 0
635 -629 0
635 -630 0
635 -631 0
635 -632 0
635 -633 0
635 -634 0
635 -107 0
635 -98 0
635 -89 0
635 -53 0
635 -52 0
635 -51 0
635 -49 0
-13 -45 634 0
-1 -59 633 0
1 -56 632 0
-4 -58 631 0
4 -55 630 0
13 -41 629 0
-627 -620 -613 628 0
627 -621 0
627 -622 0
627 -623 0
627 -624 0
627 -625 0
627 -626 0
627 -592 0
627 -593 0
627 -96 0
627 -95 0
627 -79 0
627 -78 0
627 -77 0
627 -76 0
627 -74 0
-1 -83 626 0
1 -80 625 0
-9 -84 624 0
-3 -46 623 0
9 -81 622 0
3 -43 621 0
620 -614 0
620 -615 0
620 -616 0
620 -617 0
620 -583 0
620 -584 0
620 -618 0
620 -619 0
620 -93 0
620 -92 0
620 -66 0
620 -65 0
620 -64 0
620 -63 0
620 -61 0
-9 -71 619 0
3 -42 618 0
-1 -70 617 0
1 -67 616 0
-3 -44 615 0
9 -68 614 0
613 -607 0
613 -608 0
613 -609 0
613 -610 0
613 -577 0
613 -611 0
613 -580 0
613 -90 0
613 -89 0
613 -612 0
613 -53 0
613 -52 0
613 -51 0
613 -50 0
613 -48 0
1 -54 612 0
-9 -58 611 0
-1 -57 610 0
-3 -45 609 0
9 -55 608 0
3 -41 607 0
606 -573 0
606 -601 0
606 -602 0
606 -603 0
606 -604 0
606 -605 0
-45 44 605 0
-44 46 604 0
-43 42 603 0
-42 41 602 0
-600 -591 -582 601 0
600 -592 0
600 -593 0
600 -594 0
600 -595 0
600 -596 0
600 -597 0
600 -598 0
600 -100 0
600 -97 0
600 -96 0
600 -95 0
600 -599 0
600 -79 0
600 -77 0
600 -76 0
-7 -46 599 0
6 -80 598 0
7 -43 597 0
-6 -83 596 0
-10 -84 595 0
10 -81 594 0
-11 -85 593 0
11 -82 592 0
591 -583 0
591 -584 0
591 -585 0
591 -586 0
591 -587 0
591 -588 0
591 -589 0
591 -99 0
591 -94 0
591 -93 0
591 -92 0
591 -590 0
591 -66 0
591 -64 0
591 -63 0
-10 -71 590 0
-6 -70 589 0
-7 -44 588 0
6 -67 587 0
10 -68 586 0
7 -42 585 0
-11 -72 584 0
11 -69 583 0
582 -574 0
582 -575 0
582 -576 0
582 -577 0
582 -578 0
582 -579 0
582 -580 0
582 -98 0
582 -91 0
582 -90 0
582 -89 0
582 -581 0
582 -53 0
582 -51 0
582 -50 0
-6 -57 581 0
-11 -59 580 0
6 -54 579 0
-10 -58 578 0
11 -56 577 0
-7 -45 576 0
10 -55 575 0
7 -41 574 0
-572 -563 -554 573 0
572 -564 0
572 -565 0
572 -566 0
572 -567 0
572 -568 0
572 -569 0
572 -570 0
572 -571 0
572 -109 0
572 -100 0
572 -96 0
572 -95 0
572 -79 0
572 -78 0
572 -77 0
-6 -85 571 0
6 -82 570 0
-14 -46 569 0
14 -43 568 0
-16 -83 567 0
16 -80 566 0
-8 -84 565 0
8 -81 564 0
563 -555 0
563 -556 0
563 -557 0
563 -558 0
563 -559 0
563 -560 0
563 -561 0
563 -108 0
563 -99 0
563 -93 0
563 -92 0
563 -562 0
563 -66 0
563 -65 0
563 -64 0
-16 -70 562 0
6 -69 561 0
-6 -72 560 0
-14 -44 559 0
14 -42 558 0
-8 -71 557 0
16 -67 556 0
8 -68 555 0
554 -546 0
554 -547 0
554 -548 0
554 -549 0
554 -550 0
554 -551 0
554 -552 0
554 -107 0
554 -98 0
554 -90 0
554 -89 0
554 -553 0
554 -53 0
554 -52 0
554 -51 0
-6 -59 553 0
6 -56 552 0
-14 -45 551 0
14 -41 550 0
-16 -57 549 0
16 -54 548 0
-8 -58 547 0
8 -55 546 0
-544 -543 545 0
544 -16 0
544 -15 0
544 -14 0
544 -13 0
544 -12 0
544 -11 0
544 -10 0
544 -9 0
544 -8 0
544 -7 0
544 -6 0
544 -5 0
544 -4 0
544 -3 0
544 -2 0
544 -1 0
543 -343 0
543 -432 0
543 -447 0
543 -451 0
543 -466 0
543 -470 0
543 -495 0
543 -500 0
543 -525 0
543 -529 0
543 -534 0
543 -538 0
543 -539 0
543 -540 0
543 -541 0
543 -542 0
-524 -342 542 0
-446 -494 541 0
-431 -332 540 0
-465 -421 539 0
-524 -446 -537 538 0
537 -535 0
537 -536 0
537 -506 0
537 -507 0
537 -508 0
-178 -177 -176 -175 -174 -504 536 0
-178 -177 -176 -175 -281 -530 535 0
-524 -431 -533 534 0
533 -531 0
533 -532 0
533 -501 0
533 -502 0
533 -503 0
-178 -177 -176 -175 -509 -406 532 0
-178 -177 -176 -175 -365 -530 531 0
530 -511 0
530 -512 0
530 -513 0
-494 -431 -528 529 0
528 -526 0
528 -476 0
528 -477 0
528 -527 0
528 -478 0
-178 -177 -176 -175 -385 -497 527 0
-178 -177 -176 -175 -365 -474 526 0
-524 -465 -514 525 0
524 -517 0
524 -520 0
524 -523 0
38 37 -522 -521 523 0
522 40 0
522 1 0
521 39 0
521 -1 0
33 34 -519 -518 520 0
519 35 0
519 -1 0
518 36 0
518 1 0
30 29 -516 -515 517 0
516 32 0
516 1 0
515 31 0
515 -1 0
514 -505 0
514 -510 0
514 -511 0
514 -512 0
514 -513 0
-178 -177 -176 -175 -223 513 0
-178 -298 -177 -176 -175 -146 512 0
-178 -177 -176 -175 -385 -240 511 0
-178 -177 -176 -175 -509 -146 510 0
509 -506 0
509 -507 0
509 -508 0
-178 -298 -177 -176 -175 508 0
-178 -177 -176 -175 -174 -385 507 0
-178 -177 -176 -175 -281 -223 506 0
-178 -177 -176 -175 -504 -240 505 0
504 -501 0
504 -502 0
504 -503 0
-178 -177 -176 -175 -385 503 0
-178 -298 -177 -176 -175 -406 502 0
-178 -177 -176 -175 -223 -365 501 0
-494 -465 -499 500 0
499 -496 0
499 -498 0
499 -471 0
499 -472 0
499 -473 0
-178 -177 -176 -175 -223 -497 498 0
497 -481 0
497 -482 0
497 -483 0
-178 -177 -176 -175 -240 -479 496 0
-342 -494 -484 495 0
494 -487 0
494 -490 0
494 -493 0
38 88 -492 -491 493 0
492 40 0
492 6 0
491 39 0
491 -6 0
34 -489 87 -488 490 0
489 35 0
489 -6 0
488 36 0
488 6 0
30 86 -486 -485 487 0
486 32 0
486 6 0
485 31 0
485 -6 0
484 -475 0
484 -480 0
484 -481 0
484 -482 0
484 -483 0
-178 -177 -176 -175 -317 483 0
-178 -177 -176 -175 -406 -201 482 0
-178 -177 -176 -175 -146 -264 481 0
-178 -177 -176 -175 -201 -479 480 0
479 -476 0
479 -477 0
479 -478 0
-178 -177 -176 -175 -406 478 0
-178 -177 -176 -175 -385 -317 477 0
-178 -177 -176 -175 -365 -146 476 0
-178 -177 -176 -175 -264 -474 475 0
474 -471 0
474 -472 0
474 -473 0
-178 -177 -176 -175 -146 473 0
-178 -177 -176 -175 -223 -317 472 0
-178 -177 -176 -175 -406 -240 471 0
-446 -332 -469 470 0
469 -467 0
469 -468 0
469 -282 0
469 -299 0
469 -300 0
-178 -177 -176 -175 -281 -242 468 0
-178 -298 -177 -176 -175 -452 467 0
-332 -465 -455 466 0
465 -458 0
465 -461 0
465 -464 0
115 118 -463 -462 464 0
463 28 0
463 16 0
462 27 0
462 -16 0
114 117 -460 -459 461 0
460 16 0
460 24 0
459 23 0
459 -16 0
-457 113 116 -456 458 0
457 16 0
457 20 0
456 19 0
456 -16 0
455 -453 0
455 -454 0
455 -179 0
455 -224 0
455 -241 0
-178 -177 -176 -175 -146 -301 454 0
-178 -177 -176 -175 -223 -452 453 0
452 -319 0
452 -320 0
452 -321 0
-342 -421 -450 451 0
450 -366 0
450 -367 0
450 -448 0
450 -449 0
450 -368 0
-178 -177 -176 -175 -317 -390 449 0
-178 -177 -176 -175 -201 -434 448 0
-446 -421 -436 447 0
446 -439 0
446 -442 0
446 -445 0
26 115 -444 -443 445 0
444 28 0
444 6 0
443 27 0
443 -6 0
22 -441 -440 114 442 0
441 24 0
441 6 0
440 23 0
440 -6 0
18 113 -438 -437 439 0
438 20 0
438 6 0
437 19 0
437 -6 0
436 -433 0
436 -435 0
436 -387 0
436 -388 0
436 -389 0
-178 -177 -176 -175 -174 -434 435 0
434 -408 0
434 -409 0
434 -410 0
-178 -298 -177 -176 -175 -369 433 0
-431 -421 -411 432 0
431 -424 0
431 -427 0
431 -430 0
26 -429 115 -428 430 0
429 27 0
429 -11 0
428 28 0
428 11 0
22 114 -426 -425 427 0
426 11 0
426 24 0
425 23 0
425 -11 0
18 113 -423 -422 424 0
423 11 0
423 20 0
422 19 0
422 -11 0
421 -414 0
421 -417 0
421 -420 0
88 112 -419 -418 420 0
419 40 0
419 16 0
418 39 0
418 -16 0
87 111 -416 -415 417 0
416 36 0
416 16 0
415 35 0
415 -16 0
86 -413 -412 110 414 0
413 32 0
413 16 0
412 31 0
412 -16 0
411 -386 0
411 -407 0
411 -408 0
411 -409 0
411 -410 0
-178 -177 -176 -175 -365 410 0
-178 -177 -176 -175 -385 -264 409 0
-178 -177 -176 -175 -281 -406 408 0
-178 -177 -176 -175 -406 -390 407 0
406 -395 0
406 -400 0
406 -405 0
76 78 77 103 96 100 95 -144 -143 -361 -360 -404 -403 -402 -401 405 0
404 84 0
404 7 0
403 46 0
403 10 0
402 81 0
402 -7 0
401 43 0
401 -10 0
65 64 63 -399 -134 99 93 92 102 -133 -398 -354 -353 -397 -396 400 0
399 71 0
399 7 0
398 44 0
398 10 0
397 68 0
397 -7 0
396 42 0
396 -10 0
52 50 51 -126 -349 -348 98 90 89 -125 101 -394 -393 -392 -391 395 0
394 45 0
394 10 0
393 58 0
393 7 0
392 55 0
392 -7 0
391 41 0
391 -10 0
390 -387 0
390 -388 0
390 -389 0
-178 -177 -176 -175 -281 389 0
-178 -298 -177 -176 -175 -264 388 0
-178 -177 -176 -175 -174 -365 387 0
-178 -177 -176 -175 -385 -369 386 0
385 -374 0
385 -379 0
385 -384 0
76 79 75 78 77 100 95 -221 -220 -383 -382 -381 -380 -361 -360 384 0
383 84 0
383 3 0
382 46 0
382 9 0
381 81 0
381 -3 0
380 43 0
380 -9 0
66 65 64 63 62 99 92 -354 -212 -211 -378 -377 -376 -375 -353 379 0
378 71 0
378 3 0
377 44 0
377 9 0
376 68 0
376 -3 0
375 42 0
375 -9 0
53 52 50 51 49 -349 -348 98 89 -373 -206 -205 -372 -371 -370 374 0
373 45 0
373 9 0
372 58 0
372 3 0
371 55 0
371 -3 0
370 41 0
370 -9 0
369 -366 0
369 -367 0
369 -368 0
-178 -177 -176 -175 -264 368 0
-178 -177 -176 -175 -281 -317 367 0
-178 -177 -176 -175 -365 -201 366 0
365 -350 0
365 -357 0
365 -364 0
76 79 -363 97 96 100 95 106 -362 -261 -361 -360 -260 -359 -358 364 0
363 46 0
363 12 0
362 43 0
362 -12 0
361 83 0
361 11 0
360 80 0
360 -11 0
359 84 0
359 15 0
358 81 0
358 -15 0
66 63 -255 94 99 93 92 105 -356 -355 -354 -353 -253 -352 -351 357 0
356 44 0
356 12 0
355 42 0
355 -12 0
354 70 0
354 11 0
353 67 0
353 -11 0
352 71 0
352 15 0
351 68 0
351 -15 0
53 50 -349 -348 98 91 90 89 104 -247 -347 -346 -245 -345 -344 350 0
349 57 0
349 11 0
348 54 0
348 -11 0
347 45 0
347 12 0
346 41 0
346 -12 0
345 58 0
345 15 0
344 55 0
344 -15 0
-342 -332 -322 343 0
342 -335 0
342 -338 0
342 -341 0
25 26 -340 -339 341 0
340 28 0
340 1 0
339 27 0
339 -1 0
22 21 -337 -336 338 0
337 23 0
337 -1 0
336 1 0
336 24 0
18 17 -334 -333 335 0
334 1 0
334 20 0
333 19 0
333 -1 0
332 -325 0
332 -328 0
332 -331 0
38 88 -330 -329 331 0
330 40 0
330 11 0
329 39 0
329 -11 0
34 87 -327 -326 328 0
327 36 0
327 11 0
326 35 0
326 -11 0
30 86 -324 -323 325 0
324 32 0
324 11 0
323 31 0
323 -11 0
322 -265 0
322 -318 0
322 -319 0
322 -320 0
322 -321 0
-178 -177 -176 -175 -201 321 0
-178 -177 -176 -175 -174 -317 320 0
-178 -177 -176 -175 -240 -264 319 0
-178 -177 -176 -175 -317 -301 318 0
317 -306 0
317 -311 0
317 -316 0
76 79 74 77 97 96 95 -144 -143 -315 -314 -313 -312 -199 -198 316 0
315 84 0
315 5 0
314 46 0
314 2 0
313 81 0
313 -5 0
312 43 0
312 -2 0
61 66 64 63 -310 -134 94 93 92 -133 -309 -308 -307 -190 -189 311 0
310 71 0
310 5 0
309 42 0
309 -2 0
308 44 0
308 2 0
307 68 0
307 -5 0
53 50 51 48 -126 -185 91 90 89 -125 -305 -304 -303 -302 -183 306 0
305 58 0
305 5 0
304 45 0
304 2 0
303 55 0
303 -5 0
302 41 0
302 -2 0
301 -282 0
301 -299 0
301 -300 0
-178 -177 -176 -175 -174 300 0
-178 -298 -177 -176 -175 -201 299 0
298 -287 0
298 -292 0
298 -297 0
76 75 78 77 -296 103 100 95 -171 -295 -294 -293 -169 -221 -220 297 0
296 46 0
296 5 0
295 43 0
295 -5 0
294 84 0
294 2 0
293 81 0
293 -2 0
65 64 63 62 99 92 102 -162 -291 -290 -289 -288 -160 -212 -211 292 0
291 44 0
291 5 0
290 71 0
290 2 0
289 68 0
289 -2 0
288 42 0
288 -5 0
52 50 51 49 -154 98 89 101 -286 -152 -206 -205 -285 -284 -283 287 0
286 45 0
286 5 0
285 58 0
285 2 0
284 55 0
284 -2 0
283 41 0
283 -5 0
-178 -177 -176 -175 -281 -240 282 0
281 -270 0
281 -275 0
281 -280 0
76 79 78 96 100 95 106 -261 -171 -279 -169 -278 -277 -276 -260 280 0
279 43 0
279 -8 0
278 84 0
278 14 0
277 46 0
277 8 0
276 81 0
276 -14 0
66 65 63 -255 99 93 92 105 -162 -274 -160 -273 -272 -271 -253 275 0
274 44 0
274 8 0
273 71 0
273 14 0
272 68 0
272 -14 0
271 42 0
271 -8 0
53 52 50 -154 98 90 89 104 -247 -152 -269 -245 -268 -267 -266 270 0
269 58 0
269 14 0
268 45 0
268 8 0
267 55 0
267 -14 0
266 41 0
266 -8 0
-178 -177 -176 -175 -264 -242 265 0
264 -249 0
264 -256 0
264 -263 0
76 79 74 78 96 95 106 -262 -261 -260 -199 -198 -259 -258 -257 263 0
262 46 0
262 4 0
261 85 0
261 16 0
260 82 0
260 -16 0
259 84 0
259 13 0
258 81 0
258 -13 0
257 43 0
257 -4 0
61 66 65 63 -255 93 92 105 -254 -253 -190 -189 -252 -251 -250 256 0
255 72 0
255 16 0
254 42 0
254 -4 0
253 69 0
253 -16 0
252 71 0
252 13 0
251 44 0
251 4 0
250 68 0
250 -13 0
53 52 50 48 -185 90 89 104 -248 -247 -246 -245 -183 -244 -243 249 0
248 45 0
248 4 0
247 59 0
247 16 0
246 58 0
246 13 0
245 56 0
245 -16 0
244 55 0
244 -13 0
243 41 0
243 -4 0
242 -179 0
242 -224 0
242 -241 0
-178 -177 -176 -175 -240 241 0
240 -229 0
240 -234 0
240 -239 0
78 77 103 96 100 95 109 -166 -165 -140 -139 -238 -237 -236 -235 239 0
238 84 0
238 12 0
237 46 0
237 15 0
236 81 0
236 -12 0
235 43 0
235 -15 0
65 64 -233 -135 99 93 92 108 102 -157 -156 -129 -232 -231 -230 234 0
233 71 0
233 12 0
232 44 0
232 15 0
231 68 0
231 -12 0
230 42 0
230 -15 0
52 51 98 90 89 101 107 -153 -228 -150 -122 -121 -227 -226 -225 229 0
228 58 0
228 12 0
227 45 0
227 15 0
226 55 0
226 -12 0
225 41 0
225 -15 0
-178 -177 -176 -175 -223 -201 224 0
223 -208 0
223 -215 0
223 -222 0
79 75 78 77 100 95 109 -221 -220 -219 -218 -217 -216 -140 -139 222 0
221 85 0
221 1 0
220 82 0
220 -1 0
219 84 0
219 4 0
218 46 0
218 13 0
217 81 0
217 -4 0
216 43 0
216 -13 0
66 65 64 62 -135 -214 99 92 108 -213 -212 -211 -210 -209 -129 215 0
214 71 0
214 4 0
213 44 0
213 13 0
212 72 0
212 1 0
211 69 0
211 -1 0
210 68 0
210 -4 0
209 42 0
209 -13 0
53 52 51 49 98 89 107 -207 -206 -205 -204 -203 -202 -122 -121 208 0
207 45 0
207 13 0
206 59 0
206 1 0
205 56 0
205 -1 0
204 58 0
204 4 0
203 55 0
203 -4 0
202 41 0
202 -13 0
201 -186 0
201 -193 0
201 -200 0
76 79 74 78 77 96 95 -166 -165 -199 -198 -197 -196 -195 -194 200 0
199 83 0
199 1 0
198 80 0
198 -1 0
197 84 0
197 9 0
196 46 0
196 3 0
195 81 0
195 -9 0
194 43 0
194 -3 0
61 66 65 64 63 93 92 -192 -191 -157 -156 -190 -189 -188 -187 193 0
192 71 0
192 9 0
191 42 0
191 -3 0
190 70 0
190 1 0
189 67 0
189 -1 0
188 44 0
188 3 0
187 68 0
187 -9 0
53 52 50 51 48 -185 90 89 -153 -184 -150 -183 -182 -181 -180 186 0
185 54 0
185 -1 0
184 58 0
184 9 0
183 57 0
183 1 0
182 45 0
182 3 0
181 55 0
181 -9 0
180 41 0
180 -3 0
-178 -177 -176 -175 -174 -146 179 0
178 45 0
178 -44 0
177 44 0
177 -46 0
176 43 0
176 -42 0
175 42 0
175 -41 0
174 -155 0
174 -164 0
174 -173 0
76 79 77 -172 97 96 100 95 -171 -170 -169 -168 -167 -166 -165 173 0
172 46 0
172 7 0
171 80 0
171 -6 0
170 43 0
170 -7 0
169 83 0
169 6 0
168 84 0
168 10 0
167 81 0
167 -10 0
166 85 0
166 11 0
165 82 0
165 -11 0
66 64 63 -163 94 99 93 92 -162 -161 -160 -159 -158 -157 -156 164 0
163 71 0
163 10 0
162 70 0
162 6 0
161 44 0
161 7 0
160 67 0
160 -6 0
159 68 0
159 -10 0
158 42 0
158 -7 0
157 72 0
157 11 0
156 69 0
156 -11 0
53 50 51 -154 98 91 90 89 -153 -152 -151 -150 -149 -148 -147 155 0
154 57 0
154 6 0
153 59 0
153 11 0
152 54 0
152 -6 0
151 58 0
151 10 0
150 56 0
150 -11 0
149 45 0
149 7 0
148 55 0
148 -10 0
147 41 0
147 -7 0
146 -127 0
146 -136 0
146 -145 0
79 78 77 96 100 95 109 -144 -143 -142 -141 -140 -139 -138 -137 145 0
144 85 0
144 6 0
143 82 0
143 -6 0
142 46 0
142 14 0
141 43 0
141 -14 0
140 83 0
140 16 0
139 80 0
139 -16 0
138 84 0
138 8 0
137 81 0
137 -8 0
66 65 64 -135 -134 99 93 92 108 -133 -132 -131 -130 -129 -128 136 0
135 70 0
135 16 0
134 69 0
134 -6 0
133 72 0
133 6 0
132 44 0
132 14 0
131 42 0
131 -14 0
130 71 0
130 8 0
129 67 0
129 -16 0
128 68 0
128 -8 0
53 52 51 -126 98 90 89 -125 107 -124 -123 -122 -121 -120 -119 127 0
126 59 0
126 6 0
125 56 0
125 -6 0
124 45 0
124 14 0
123 41 0
123 -14 0
122 57 0
122 16 0
121 54 0
121 -16 0
120 58 0
120 8 0
119 55 0
119 -8 0
